lattice_vector      0.00000000      2.715000      2.715000
lattice_vector      2.715000      0.00000000      2.715000
lattice_vector      2.715000      2.715000      0.00000000
atom      -0.00125022     -0.00125011     -0.00125012 Si
atom       1.35625022      1.35625011      1.35625012 Si
