lattice_vector   2.1304216  -1.2299995   0.0000000   
lattice_vector   0.0000000   2.4599989   0.0000000   
lattice_vector   0.0000000   0.0000000   6.8000000   
 
atom_frac                      -0.666667  -0.333333   0.500000  C 
atom_frac                       0.666667   0.333333   0.500000  C 

