lattice_vector      0.00000000      <lat>      <lat>
lattice_vector      <lat>      0.00000000      <lat>
lattice_vector      <lat>      <lat>      0.00000000
atom      -0.00125022     -0.00125011     -0.00125012 Si
atom       1.35625022      1.35625011      1.35625012 Si
